codbt011.lp
\ LP format - for model browsing. Use MPS format to capture full model detail.
Minimize
  x0 + x1 + x2
Subject To
 R0: x0 + x1 + x2 >= 1
 R1: x0 + x1 + x2 >= 1
 R2: x0 + x1 + x2 >= 1
Bounds
 x0 <= 1
 x1 <= 1
 x2 <= 1
End
